p cnf 965 2478
51 -2 -698 0
-51 2 0
-51 698 0
52 -51 -699 0
-52 51 0
-52 699 0
53 -700 -1 0
-53 700 0
-53 1 0
54 -53 -701 0
-54 53 0
-54 701 0
55 -702 -703 0
-55 702 0
-55 703 0
56 -704 -705 0
-56 704 0
-56 705 0
57 -56 -706 0
-57 56 0
-57 706 0
58 -707 -55 0
-58 707 0
-58 55 0
59 -10 -708 0
-59 10 0
-59 708 0
60 -59 -709 0
-60 59 0
-60 709 0
61 -710 -58 0
-61 710 0
-61 58 0
62 -13 -711 0
-62 13 0
-62 711 0
63 -62 -14 0
-63 62 0
-63 14 0
64 -712 -61 0
-64 712 0
-64 61 0
65 -15 -2 0
-65 15 0
-65 2 0
66 -65 -13 0
-66 65 0
-66 13 0
67 -713 -64 0
-67 713 0
-67 64 0
68 -714 -11 0
-68 714 0
-68 11 0
69 -68 -715 0
-69 68 0
-69 715 0
70 -716 -67 0
-70 716 0
-70 67 0
71 -19 -18 0
-71 19 0
-71 18 0
72 -71 -10 0
-72 71 0
-72 10 0
73 -717 -70 0
-73 717 0
-73 70 0
74 -20 -4 0
-74 20 0
-74 4 0
75 -74 -21 0
-75 74 0
-75 21 0
76 -718 -73 0
-76 718 0
-76 73 0
77 -719 -9 0
-77 719 0
-77 9 0
78 -77 -720 0
-78 77 0
-78 720 0
79 -721 -76 0
-79 721 0
-79 76 0
80 -722 -704 0
-80 722 0
-80 704 0
81 -80 -21 0
-81 80 0
-81 21 0
82 -723 -79 0
-82 723 0
-82 79 0
83 -724 -18 0
-83 724 0
-83 18 0
84 -83 -720 0
-84 83 0
-84 720 0
85 -725 -82 0
-85 725 0
-85 82 0
86 -726 -727 0
-86 726 0
-86 727 0
87 -86 -11 0
-87 86 0
-87 11 0
88 -728 -85 0
-88 728 0
-88 85 0
89 -729 -730 0
-89 729 0
-89 730 0
90 -89 -29 0
-90 89 0
-90 29 0
91 -731 -88 0
-91 731 0
-91 88 0
92 -27 -732 0
-92 27 0
-92 732 0
93 -92 -733 0
-93 92 0
-93 733 0
94 -734 -91 0
-94 734 0
-94 91 0
95 -31 -735 0
-95 31 0
-95 735 0
96 -95 -736 0
-96 95 0
-96 736 0
97 -737 -94 0
-97 737 0
-97 94 0
98 -33 -6 0
-98 33 0
-98 6 0
99 -98 -706 0
-99 98 0
-99 706 0
100 -738 -97 0
-100 738 0
-100 97 0
101 -33 -739 0
-101 33 0
-101 739 0
102 -101 -34 0
-102 101 0
-102 34 0
103 -740 -100 0
-103 740 0
-103 100 0
104 -741 -742 0
-104 741 0
-104 742 0
105 -104 -23 0
-105 104 0
-105 23 0
106 -743 -103 0
-106 743 0
-106 103 0
107 -744 -745 0
-107 744 0
-107 745 0
108 -107 -711 0
-108 107 0
-108 711 0
109 -746 -106 0
-109 746 0
-109 106 0
110 -34 -722 0
-110 34 0
-110 722 0
111 -110 -747 0
-111 110 0
-111 747 0
112 -748 -109 0
-112 748 0
-112 109 0
113 -16 -6 0
-113 16 0
-113 6 0
114 -113 -3 0
-114 113 0
-114 3 0
115 -749 -112 0
-115 749 0
-115 112 0
116 -7 -4 0
-116 7 0
-116 4 0
117 -116 -750 0
-117 116 0
-117 750 0
118 -751 -115 0
-118 751 0
-118 115 0
119 -752 -34 0
-119 752 0
-119 34 0
120 -119 -747 0
-120 119 0
-120 747 0
121 -753 -118 0
-121 753 0
-121 118 0
122 -32 -7 0
-122 32 0
-122 7 0
123 -122 -42 0
-123 122 0
-123 42 0
124 -754 -121 0
-124 754 0
-124 121 0
125 -755 -2 0
-125 755 0
-125 2 0
126 -125 -747 0
-126 125 0
-126 747 0
127 -756 -124 0
-127 756 0
-127 124 0
128 -757 -705 0
-128 757 0
-128 705 0
129 -128 -11 0
-129 128 0
-129 11 0
130 -758 -127 0
-130 758 0
-130 127 0
131 -759 -732 0
-131 759 0
-131 732 0
132 -131 -45 0
-132 131 0
-132 45 0
133 -760 -130 0
-133 760 0
-133 130 0
134 -40 -1 0
-134 40 0
-134 1 0
135 -134 -736 0
-135 134 0
-135 736 0
136 -761 -133 0
-136 761 0
-136 133 0
137 -37 -732 0
-137 37 0
-137 732 0
138 -137 -42 0
-138 137 0
-138 42 0
139 -762 -136 0
-139 762 0
-139 136 0
140 -16 -13 0
-140 16 0
-140 13 0
141 -140 -699 0
-141 140 0
-141 699 0
142 -763 -139 0
-142 763 0
-142 139 0
143 -42 -33 0
-143 42 0
-143 33 0
144 -143 -733 0
-144 143 0
-144 733 0
145 -764 -142 0
-145 764 0
-145 142 0
146 -765 -29 0
-146 765 0
-146 29 0
147 -146 -715 0
-147 146 0
-147 715 0
148 -766 -145 0
-148 766 0
-148 145 0
149 -767 -18 0
-149 767 0
-149 18 0
150 -149 -8 0
-150 149 0
-150 8 0
151 -768 -148 0
-151 768 0
-151 148 0
152 -735 -7 0
-152 735 0
-152 7 0
153 -152 -769 0
-153 152 0
-153 769 0
154 -770 -151 0
-154 770 0
-154 151 0
155 -34 -700 0
-155 34 0
-155 700 0
156 -155 -39 0
-156 155 0
-156 39 0
157 -771 -154 0
-157 771 0
-157 154 0
158 -16 -15 0
-158 16 0
-158 15 0
159 -158 -729 0
-159 158 0
-159 729 0
160 -772 -157 0
-160 772 0
-160 157 0
161 -708 -704 0
-161 708 0
-161 704 0
162 -161 -20 0
-162 161 0
-162 20 0
163 -773 -160 0
-163 773 0
-163 160 0
164 -765 -4 0
-164 765 0
-164 4 0
165 -164 -739 0
-165 164 0
-165 739 0
166 -774 -163 0
-166 774 0
-166 163 0
167 -742 -729 0
-167 742 0
-167 729 0
168 -167 -775 0
-168 167 0
-168 775 0
169 -776 -166 0
-169 776 0
-169 166 0
170 -759 -40 0
-170 759 0
-170 40 0
171 -170 -11 0
-171 170 0
-171 11 0
172 -777 -169 0
-172 777 0
-172 169 0
173 -745 -741 0
-173 745 0
-173 741 0
174 -173 -778 0
-174 173 0
-174 778 0
175 -779 -172 0
-175 779 0
-175 172 0
176 -37 -18 0
-176 37 0
-176 18 0
177 -176 -46 0
-177 176 0
-177 46 0
178 -780 -175 0
-178 780 0
-178 175 0
179 -48 -44 0
-179 48 0
-179 44 0
180 -179 -715 0
-180 179 0
-180 715 0
181 -781 -178 0
-181 781 0
-181 178 0
182 -25 -711 0
-182 25 0
-182 711 0
183 -182 -30 0
-183 182 0
-183 30 0
184 -782 -181 0
-184 782 0
-184 181 0
185 -741 -729 0
-185 741 0
-185 729 0
186 -185 -20 0
-186 185 0
-186 20 0
187 -783 -184 0
-187 783 0
-187 184 0
188 -726 -719 0
-188 726 0
-188 719 0
189 -188 -8 0
-189 188 0
-189 8 0
190 -784 -187 0
-190 784 0
-190 187 0
191 -741 -785 0
-191 741 0
-191 785 0
192 -191 -736 0
-192 191 0
-192 736 0
193 -786 -190 0
-193 786 0
-193 190 0
194 -787 -708 0
-194 787 0
-194 708 0
195 -194 -750 0
-195 194 0
-195 750 0
196 -788 -193 0
-196 788 0
-196 193 0
197 -40 -27 0
-197 40 0
-197 27 0
198 -197 -789 0
-198 197 0
-198 789 0
199 -790 -196 0
-199 790 0
-199 196 0
200 -24 -700 0
-200 24 0
-200 700 0
201 -200 -709 0
-201 200 0
-201 709 0
202 -791 -199 0
-202 791 0
-202 199 0
203 -741 -5 0
-203 741 0
-203 5 0
204 -203 -39 0
-204 203 0
-204 39 0
205 -792 -202 0
-205 792 0
-205 202 0
206 -793 -16 0
-206 793 0
-206 16 0
207 -206 -715 0
-207 206 0
-207 715 0
208 -794 -205 0
-208 794 0
-208 205 0
209 -730 -795 0
-209 730 0
-209 795 0
210 -209 -715 0
-210 209 0
-210 715 0
211 -796 -208 0
-211 796 0
-211 208 0
212 -714 -708 0
-212 714 0
-212 708 0
213 -212 -5 0
-213 212 0
-213 5 0
214 -797 -211 0
-214 797 0
-214 211 0
215 -19 -698 0
-215 19 0
-215 698 0
216 -215 -798 0
-216 215 0
-216 798 0
217 -799 -214 0
-217 799 0
-217 214 0
218 -38 -704 0
-218 38 0
-218 704 0
219 -218 -17 0
-219 218 0
-219 17 0
220 -800 -217 0
-220 800 0
-220 217 0
221 -750 -38 0
-221 750 0
-221 38 0
222 -221 -2 0
-222 221 0
-222 2 0
223 -801 -220 0
-223 801 0
-223 220 0
224 -43 -32 0
-224 43 0
-224 32 0
225 -224 -49 0
-225 224 0
-225 49 0
226 -802 -223 0
-226 802 0
-226 223 0
227 -31 -719 0
-227 31 0
-227 719 0
228 -227 -736 0
-228 227 0
-228 736 0
229 -803 -226 0
-229 803 0
-229 226 0
230 -804 -719 0
-230 804 0
-230 719 0
231 -230 -4 0
-231 230 0
-231 4 0
232 -805 -229 0
-232 805 0
-232 229 0
233 -752 -33 0
-233 752 0
-233 33 0
234 -233 -806 0
-234 233 0
-234 806 0
235 -807 -232 0
-235 807 0
-235 232 0
236 -27 -9 0
-236 27 0
-236 9 0
237 -236 -33 0
-237 236 0
-237 33 0
238 -808 -235 0
-238 808 0
-238 235 0
239 -741 -12 0
-239 741 0
-239 12 0
240 -239 -735 0
-240 239 0
-240 735 0
241 -809 -238 0
-241 809 0
-241 238 0
242 -767 -7 0
-242 767 0
-242 7 0
243 -242 -778 0
-243 242 0
-243 778 0
244 -810 -241 0
-244 810 0
-244 241 0
245 -43 -31 0
-245 43 0
-245 31 0
246 -245 -47 0
-246 245 0
-246 47 0
247 -811 -244 0
-247 811 0
-247 244 0
248 -16 -10 0
-248 16 0
-248 10 0
249 -248 -775 0
-249 248 0
-249 775 0
250 -812 -247 0
-250 812 0
-250 247 0
251 -35 -714 0
-251 35 0
-251 714 0
252 -251 -7 0
-252 251 0
-252 7 0
253 -813 -250 0
-253 813 0
-253 250 0
254 -787 -4 0
-254 787 0
-254 4 0
255 -254 -8 0
-255 254 0
-255 8 0
256 -814 -253 0
-256 814 0
-256 253 0
257 -46 -28 0
-257 46 0
-257 28 0
258 -257 -47 0
-258 257 0
-258 47 0
259 -815 -256 0
-259 815 0
-259 256 0
260 -789 -724 0
-260 789 0
-260 724 0
261 -260 -3 0
-261 260 0
-261 3 0
262 -816 -259 0
-262 816 0
-262 259 0
263 -745 -735 0
-263 745 0
-263 735 0
264 -263 -757 0
-264 263 0
-264 757 0
265 -817 -262 0
-265 817 0
-265 262 0
266 -48 -46 0
-266 48 0
-266 46 0
267 -266 -24 0
-267 266 0
-267 24 0
268 -818 -265 0
-268 818 0
-268 265 0
269 -722 -22 0
-269 722 0
-269 22 0
270 -269 -8 0
-270 269 0
-270 8 0
271 -819 -268 0
-271 819 0
-271 268 0
272 -32 -15 0
-272 32 0
-272 15 0
273 -272 -757 0
-273 272 0
-273 757 0
274 -820 -271 0
-274 820 0
-274 271 0
275 -752 -20 0
-275 752 0
-275 20 0
276 -275 -39 0
-276 275 0
-276 39 0
277 -821 -274 0
-277 821 0
-277 274 0
278 -28 -4 0
-278 28 0
-278 4 0
279 -278 -733 0
-279 278 0
-279 733 0
280 -822 -277 0
-280 822 0
-280 277 0
281 -27 -21 0
-281 27 0
-281 21 0
282 -281 -3 0
-282 281 0
-282 3 0
283 -823 -280 0
-283 823 0
-283 280 0
284 -31 -739 0
-284 31 0
-284 739 0
285 -284 -778 0
-285 284 0
-285 778 0
286 -824 -283 0
-286 824 0
-286 283 0
287 -25 -735 0
-287 25 0
-287 735 0
288 -287 -775 0
-288 287 0
-288 775 0
289 -825 -286 0
-289 825 0
-289 286 0
290 -28 -11 0
-290 28 0
-290 11 0
291 -290 -17 0
-291 290 0
-291 17 0
292 -826 -289 0
-292 826 0
-292 289 0
293 -44 -9 0
-293 44 0
-293 9 0
294 -293 -701 0
-294 293 0
-294 701 0
295 -827 -292 0
-295 827 0
-295 292 0
296 -42 -38 0
-296 42 0
-296 38 0
297 -296 -17 0
-297 296 0
-297 17 0
298 -828 -295 0
-298 828 0
-298 295 0
299 -735 -1 0
-299 735 0
-299 1 0
300 -299 -767 0
-300 299 0
-300 767 0
301 -829 -298 0
-301 829 0
-301 298 0
302 -793 -21 0
-302 793 0
-302 21 0
303 -302 -715 0
-303 302 0
-303 715 0
304 -830 -301 0
-304 830 0
-304 301 0
305 -769 -724 0
-305 769 0
-305 724 0
306 -305 -8 0
-306 305 0
-306 8 0
307 -831 -304 0
-307 831 0
-307 304 0
308 -40 -711 0
-308 40 0
-308 711 0
309 -308 -785 0
-309 308 0
-309 785 0
310 -832 -307 0
-310 832 0
-310 307 0
311 -793 -22 0
-311 793 0
-311 22 0
312 -311 -34 0
-312 311 0
-312 34 0
313 -833 -310 0
-313 833 0
-313 310 0
314 -742 -698 0
-314 742 0
-314 698 0
315 -314 -795 0
-315 314 0
-315 795 0
316 -834 -313 0
-316 834 0
-316 313 0
317 -107 -4 0
-317 107 0
-317 4 0
318 -835 -316 0
-318 835 0
-318 316 0
319 -742 -12 0
-319 742 0
-319 12 0
320 -319 -8 0
-320 319 0
-320 8 0
321 -836 -318 0
-321 836 0
-321 318 0
322 -38 -15 0
-322 38 0
-322 15 0
323 -322 -32 0
-323 322 0
-323 32 0
324 -837 -321 0
-324 837 0
-324 321 0
325 -769 -706 0
-325 769 0
-325 706 0
326 -325 -39 0
-326 325 0
-326 39 0
327 -838 -324 0
-327 838 0
-327 324 0
328 -714 -704 0
-328 714 0
-328 704 0
329 -328 -715 0
-329 328 0
-329 715 0
330 -839 -327 0
-330 839 0
-330 327 0
331 -33 -700 0
-331 33 0
-331 700 0
332 -331 -736 0
-332 331 0
-332 736 0
333 -840 -330 0
-333 840 0
-333 330 0
334 -724 -12 0
-334 724 0
-334 12 0
335 -334 -49 0
-335 334 0
-335 49 0
336 -841 -333 0
-336 841 0
-336 333 0
337 -767 -730 0
-337 767 0
-337 730 0
338 -337 -699 0
-338 337 0
-338 699 0
339 -842 -336 0
-339 842 0
-339 336 0
340 -804 -35 0
-340 804 0
-340 35 0
341 -340 -733 0
-341 340 0
-341 733 0
342 -843 -339 0
-342 843 0
-342 339 0
343 -42 -720 0
-343 42 0
-343 720 0
344 -343 -10 0
-344 343 0
-344 10 0
345 -844 -342 0
-345 844 0
-345 342 0
346 -33 -19 0
-346 33 0
-346 19 0
347 -346 -845 0
-347 346 0
-347 845 0
348 -846 -345 0
-348 846 0
-348 345 0
349 -44 -730 0
-349 44 0
-349 730 0
350 -349 -709 0
-350 349 0
-350 709 0
351 -847 -348 0
-351 847 0
-351 348 0
352 -27 -698 0
-352 27 0
-352 698 0
353 -352 -13 0
-353 352 0
-353 13 0
354 -848 -351 0
-354 848 0
-354 351 0
355 -36 -19 0
-355 36 0
-355 19 0
356 -355 -727 0
-356 355 0
-356 727 0
357 -849 -354 0
-357 849 0
-357 354 0
358 -38 -711 0
-358 38 0
-358 711 0
359 -358 -32 0
-359 358 0
-359 32 0
360 -850 -357 0
-360 850 0
-360 357 0
361 -38 -12 0
-361 38 0
-361 12 0
362 -361 -701 0
-362 361 0
-362 701 0
363 -851 -360 0
-363 851 0
-363 360 0
364 -727 -795 0
-364 727 0
-364 795 0
365 -364 -699 0
-365 364 0
-365 699 0
366 -852 -363 0
-366 852 0
-366 363 0
367 -759 -798 0
-367 759 0
-367 798 0
368 -367 -726 0
-368 367 0
-368 726 0
369 -853 -366 0
-369 853 0
-369 366 0
370 -41 -9 0
-370 41 0
-370 9 0
371 -370 -28 0
-371 370 0
-371 28 0
372 -854 -369 0
-372 854 0
-372 369 0
373 -22 -7 0
-373 22 0
-373 7 0
374 -373 -722 0
-374 373 0
-374 722 0
375 -855 -372 0
-375 855 0
-375 372 0
376 -28 -2 0
-376 28 0
-376 2 0
377 -376 -33 0
-377 376 0
-377 33 0
378 -856 -375 0
-378 856 0
-378 375 0
379 -765 -45 0
-379 765 0
-379 45 0
380 -379 -757 0
-380 379 0
-380 757 0
381 -857 -378 0
-381 857 0
-381 378 0
382 -43 -724 0
-382 43 0
-382 724 0
383 -382 -722 0
-383 382 0
-383 722 0
384 -858 -381 0
-384 858 0
-384 381 0
385 -744 -4 0
-385 744 0
-385 4 0
386 -385 -10 0
-386 385 0
-386 10 0
387 -859 -384 0
-387 859 0
-387 384 0
388 -714 -711 0
-388 714 0
-388 711 0
389 -388 -736 0
-389 388 0
-389 736 0
390 -860 -387 0
-390 860 0
-390 387 0
391 -736 -739 0
-391 736 0
-391 739 0
392 -391 -798 0
-392 391 0
-392 798 0
393 -861 -390 0
-393 861 0
-393 390 0
394 -24 -14 0
-394 24 0
-394 14 0
395 -394 -39 0
-395 394 0
-395 39 0
396 -862 -393 0
-396 862 0
-396 393 0
397 -36 -704 0
-397 36 0
-397 704 0
398 -397 -727 0
-398 397 0
-398 727 0
399 -863 -396 0
-399 863 0
-399 396 0
400 -787 -700 0
-400 787 0
-400 700 0
401 -400 -49 0
-401 400 0
-401 49 0
402 -864 -399 0
-402 864 0
-402 399 0
403 -733 -698 0
-403 733 0
-403 698 0
404 -403 -24 0
-404 403 0
-404 24 0
405 -865 -402 0
-405 865 0
-405 402 0
406 -379 -30 0
-406 379 0
-406 30 0
407 -866 -405 0
-407 866 0
-407 405 0
408 -789 -705 0
-408 789 0
-408 705 0
409 -408 -26 0
-409 408 0
-409 26 0
410 -867 -407 0
-410 867 0
-410 407 0
411 -13 -12 0
-411 13 0
-411 12 0
412 -411 -727 0
-412 411 0
-412 727 0
413 -868 -410 0
-413 868 0
-413 410 0
414 -32 -729 0
-414 32 0
-414 729 0
415 -414 -13 0
-415 414 0
-415 13 0
416 -869 -413 0
-416 869 0
-416 413 0
417 -804 -29 0
-417 804 0
-417 29 0
418 -417 -24 0
-418 417 0
-418 24 0
419 -870 -416 0
-419 870 0
-419 416 0
420 -43 -798 0
-420 43 0
-420 798 0
421 -420 -21 0
-421 420 0
-421 21 0
422 -871 -419 0
-422 871 0
-422 419 0
423 -15 -711 0
-423 15 0
-423 711 0
424 -423 -18 0
-424 423 0
-424 18 0
425 -872 -422 0
-425 872 0
-425 422 0
426 -37 -11 0
-426 37 0
-426 11 0
427 -426 -47 0
-427 426 0
-427 47 0
428 -873 -425 0
-428 873 0
-428 425 0
429 -705 -698 0
-429 705 0
-429 698 0
430 -429 -874 0
-430 429 0
-430 874 0
431 -875 -428 0
-431 875 0
-431 428 0
432 -36 -742 0
-432 36 0
-432 742 0
433 -432 -3 0
-433 432 0
-433 3 0
434 -876 -431 0
-434 876 0
-434 431 0
435 -25 -732 0
-435 25 0
-435 732 0
436 -435 -32 0
-436 435 0
-436 32 0
437 -877 -434 0
-437 877 0
-437 434 0
438 -700 -2 0
-438 700 0
-438 2 0
439 -438 -726 0
-439 438 0
-439 726 0
440 -878 -437 0
-440 878 0
-440 437 0
441 -7 -6 0
-441 7 0
-441 6 0
442 -441 -14 0
-442 441 0
-442 14 0
443 -879 -440 0
-443 879 0
-443 440 0
444 -733 -730 0
-444 733 0
-444 730 0
445 -444 -706 0
-445 444 0
-445 706 0
446 -880 -443 0
-446 880 0
-446 443 0
447 -769 -12 0
-447 769 0
-447 12 0
448 -447 -13 0
-448 447 0
-448 13 0
449 -881 -446 0
-449 881 0
-449 446 0
450 -37 -742 0
-450 37 0
-450 742 0
451 -450 -48 0
-451 450 0
-451 48 0
452 -882 -449 0
-452 882 0
-452 449 0
453 -727 -701 0
-453 727 0
-453 701 0
454 -453 -30 0
-454 453 0
-454 30 0
455 -883 -452 0
-455 883 0
-455 452 0
456 -714 -6 0
-456 714 0
-456 6 0
457 -456 -750 0
-457 456 0
-457 750 0
458 -884 -455 0
-458 884 0
-458 455 0
459 -48 -18 0
-459 48 0
-459 18 0
460 -459 -13 0
-460 459 0
-460 13 0
461 -885 -458 0
-461 885 0
-461 458 0
462 -41 -25 0
-462 41 0
-462 25 0
463 -462 -29 0
-463 462 0
-463 29 0
464 -886 -461 0
-464 886 0
-464 461 0
465 -50 -15 0
-465 50 0
-465 15 0
466 -465 -2 0
-466 465 0
-466 2 0
467 -887 -464 0
-467 887 0
-467 464 0
468 -45 -2 0
-468 45 0
-468 2 0
469 -468 -26 0
-469 468 0
-469 26 0
470 -888 -467 0
-470 888 0
-470 467 0
471 -752 -12 0
-471 752 0
-471 12 0
472 -471 -778 0
-472 471 0
-472 778 0
473 -889 -470 0
-473 889 0
-473 470 0
474 -48 -736 0
-474 48 0
-474 736 0
475 -474 -47 0
-475 474 0
-475 47 0
476 -890 -473 0
-476 890 0
-476 473 0
477 -275 -49 0
-477 275 0
-477 49 0
478 -891 -476 0
-478 891 0
-478 476 0
479 -15 -708 0
-479 15 0
-479 708 0
480 -479 -739 0
-480 479 0
-480 739 0
481 -892 -478 0
-481 892 0
-481 478 0
482 -757 -729 0
-482 757 0
-482 729 0
483 -482 -874 0
-483 482 0
-483 874 0
484 -893 -481 0
-484 893 0
-484 481 0
485 -36 -730 0
-485 36 0
-485 730 0
486 -485 -769 0
-486 485 0
-486 769 0
487 -894 -484 0
-487 894 0
-487 484 0
488 -27 -719 0
-488 27 0
-488 719 0
489 -488 -11 0
-489 488 0
-489 11 0
490 -895 -487 0
-490 895 0
-490 487 0
491 -701 -785 0
-491 701 0
-491 785 0
492 -491 -733 0
-492 491 0
-492 733 0
493 -896 -490 0
-493 896 0
-493 490 0
494 -714 -4 0
-494 714 0
-494 4 0
495 -494 -798 0
-495 494 0
-495 798 0
496 -897 -493 0
-496 897 0
-496 493 0
497 -741 -724 0
-497 741 0
-497 724 0
498 -497 -709 0
-498 497 0
-498 709 0
499 -898 -496 0
-499 898 0
-499 496 0
500 -46 -25 0
-500 46 0
-500 25 0
501 -500 -798 0
-501 500 0
-501 798 0
502 -899 -499 0
-502 899 0
-502 499 0
503 -708 -2 0
-503 708 0
-503 2 0
504 -503 -5 0
-504 503 0
-504 5 0
505 -900 -502 0
-505 900 0
-505 502 0
506 -793 -28 0
-506 793 0
-506 28 0
507 -506 -715 0
-507 506 0
-507 715 0
508 -901 -505 0
-508 901 0
-508 505 0
509 -50 -785 0
-509 50 0
-509 785 0
510 -509 -33 0
-510 509 0
-510 33 0
511 -902 -508 0
-511 902 0
-511 508 0
512 -730 -12 0
-512 730 0
-512 12 0
513 -512 -704 0
-513 512 0
-513 704 0
514 -903 -511 0
-514 903 0
-514 511 0
515 -44 -18 0
-515 44 0
-515 18 0
516 -515 -8 0
-516 515 0
-516 8 0
517 -904 -514 0
-517 904 0
-517 514 0
518 -804 -15 0
-518 804 0
-518 15 0
519 -518 -739 0
-519 518 0
-519 739 0
520 -905 -517 0
-520 905 0
-520 517 0
521 -804 -36 0
-521 804 0
-521 36 0
522 -521 -706 0
-522 521 0
-522 706 0
523 -906 -520 0
-523 906 0
-523 520 0
524 -752 -744 0
-524 752 0
-524 744 0
525 -524 -34 0
-525 524 0
-525 34 0
526 -907 -523 0
-526 907 0
-526 523 0
527 -804 -787 0
-527 804 0
-527 787 0
528 -527 -40 0
-528 527 0
-528 40 0
529 -908 -526 0
-529 908 0
-529 526 0
530 -5 -700 0
-530 5 0
-530 700 0
531 -530 -11 0
-531 530 0
-531 11 0
532 -909 -529 0
-532 909 0
-532 529 0
533 -16 -4 0
-533 16 0
-533 4 0
534 -533 -735 0
-534 533 0
-534 735 0
535 -910 -532 0
-535 910 0
-535 532 0
536 -30 -757 0
-536 30 0
-536 757 0
537 -536 -39 0
-537 536 0
-537 39 0
538 -911 -535 0
-538 911 0
-538 535 0
539 -37 -711 0
-539 37 0
-539 711 0
540 -539 -845 0
-540 539 0
-540 845 0
541 -912 -538 0
-541 912 0
-541 538 0
542 -793 -23 0
-542 793 0
-542 23 0
543 -542 -767 0
-543 542 0
-543 767 0
544 -913 -541 0
-544 913 0
-544 541 0
545 -742 -16 0
-545 742 0
-545 16 0
546 -545 -18 0
-546 545 0
-546 18 0
547 -914 -544 0
-547 914 0
-547 544 0
548 -46 -22 0
-548 46 0
-548 22 0
549 -548 -845 0
-549 548 0
-549 845 0
550 -915 -547 0
-550 915 0
-550 547 0
551 -37 -735 0
-551 37 0
-551 735 0
552 -551 -21 0
-552 551 0
-552 21 0
553 -916 -550 0
-553 916 0
-553 550 0
554 -29 -28 0
-554 29 0
-554 28 0
555 -554 -30 0
-555 554 0
-555 30 0
556 -917 -553 0
-556 917 0
-556 553 0
557 -349 -1 0
-557 349 0
-557 1 0
558 -918 -556 0
-558 918 0
-558 556 0
559 -741 -795 0
-559 741 0
-559 795 0
560 -559 -775 0
-560 559 0
-560 775 0
561 -919 -558 0
-561 919 0
-561 558 0
562 -221 -755 0
-562 221 0
-562 755 0
563 -920 -561 0
-563 920 0
-563 561 0
564 -5 -1 0
-564 5 0
-564 1 0
565 -564 -806 0
-565 564 0
-565 806 0
566 -921 -563 0
-566 921 0
-566 563 0
567 -806 -732 0
-567 806 0
-567 732 0
568 -567 -722 0
-568 567 0
-568 722 0
569 -922 -566 0
-569 922 0
-569 566 0
570 -40 -736 0
-570 40 0
-570 736 0
571 -570 -767 0
-571 570 0
-571 767 0
572 -923 -569 0
-572 923 0
-572 569 0
573 -527 -741 0
-573 527 0
-573 741 0
574 -924 -572 0
-574 924 0
-574 572 0
575 -759 -845 0
-575 759 0
-575 845 0
576 -575 -726 0
-576 575 0
-576 726 0
577 -925 -574 0
-577 925 0
-577 574 0
578 -50 -6 0
-578 50 0
-578 6 0
579 -578 -735 0
-579 578 0
-579 735 0
580 -926 -577 0
-580 926 0
-580 577 0
581 -44 -714 0
-581 44 0
-581 714 0
582 -581 -7 0
-582 581 0
-582 7 0
583 -927 -580 0
-583 927 0
-583 580 0
584 -708 -1 0
-584 708 0
-584 1 0
585 -584 -18 0
-585 584 0
-585 18 0
586 -928 -583 0
-586 928 0
-586 583 0
587 -32 -23 0
-587 32 0
-587 23 0
588 -587 -726 0
-588 587 0
-588 726 0
589 -929 -586 0
-589 929 0
-589 586 0
590 -32 -13 0
-590 32 0
-590 13 0
591 -590 -699 0
-591 590 0
-591 699 0
592 -930 -589 0
-592 930 0
-592 589 0
593 -46 -845 0
-593 46 0
-593 845 0
594 -593 -8 0
-594 593 0
-594 8 0
595 -931 -592 0
-595 931 0
-595 592 0
596 -804 -8 0
-596 804 0
-596 8 0
597 -596 -17 0
-597 596 0
-597 17 0
598 -932 -595 0
-598 932 0
-598 595 0
599 -741 -787 0
-599 741 0
-599 787 0
600 -599 -778 0
-600 599 0
-600 778 0
601 -933 -598 0
-601 933 0
-601 598 0
602 -778 -727 0
-602 778 0
-602 727 0
603 -602 -8 0
-603 602 0
-603 8 0
604 -934 -601 0
-604 934 0
-604 601 0
605 -21 -8 0
-605 21 0
-605 8 0
606 -605 -39 0
-606 605 0
-606 39 0
607 -935 -604 0
-607 935 0
-607 604 0
608 -735 -701 0
-608 735 0
-608 701 0
609 -608 -874 0
-609 608 0
-609 874 0
610 -936 -607 0
-610 936 0
-610 607 0
611 -752 -730 0
-611 752 0
-611 730 0
612 -611 -25 0
-612 611 0
-612 25 0
613 -937 -610 0
-613 937 0
-613 610 0
614 -755 -25 0
-614 755 0
-614 25 0
615 -614 -726 0
-615 614 0
-615 726 0
616 -938 -613 0
-616 938 0
-616 613 0
617 -50 -1 0
-617 50 0
-617 1 0
618 -617 -767 0
-618 617 0
-618 767 0
619 -939 -616 0
-619 939 0
-619 616 0
620 -735 -739 0
-620 735 0
-620 739 0
621 -620 -20 0
-621 620 0
-621 20 0
622 -940 -619 0
-622 940 0
-622 619 0
623 -48 -28 0
-623 48 0
-623 28 0
624 -623 -767 0
-624 623 0
-624 767 0
625 -941 -622 0
-625 941 0
-625 622 0
626 -43 -705 0
-626 43 0
-626 705 0
627 -626 -49 0
-627 626 0
-627 49 0
628 -942 -625 0
-628 942 0
-628 625 0
629 -33 -787 0
-629 33 0
-629 787 0
630 -629 -709 0
-630 629 0
-630 709 0
631 -943 -628 0
-631 943 0
-631 628 0
632 -742 -15 0
-632 742 0
-632 15 0
633 -632 -31 0
-633 632 0
-633 31 0
634 -944 -631 0
-634 944 0
-634 631 0
635 -769 -28 0
-635 769 0
-635 28 0
636 -635 -806 0
-636 635 0
-636 806 0
637 -945 -634 0
-637 945 0
-637 634 0
638 -12 -9 0
-638 12 0
-638 9 0
639 -638 -706 0
-639 638 0
-639 706 0
640 -946 -637 0
-640 946 0
-640 637 0
641 -767 -28 0
-641 767 0
-641 28 0
642 -641 -24 0
-642 641 0
-642 24 0
643 -947 -640 0
-643 947 0
-643 640 0
644 -35 -20 0
-644 35 0
-644 20 0
645 -644 -845 0
-645 644 0
-645 845 0
646 -948 -643 0
-646 948 0
-646 643 0
647 -750 -1 0
-647 750 0
-647 1 0
648 -647 -5 0
-648 647 0
-648 5 0
649 -949 -646 0
-649 949 0
-649 646 0
650 -793 -33 0
-650 793 0
-650 33 0
651 -650 -726 0
-651 650 0
-651 726 0
652 -950 -649 0
-652 950 0
-652 649 0
653 -804 -755 0
-653 804 0
-653 755 0
654 -653 -30 0
-654 653 0
-654 30 0
655 -951 -652 0
-655 951 0
-655 652 0
656 -806 -755 0
-656 806 0
-656 755 0
657 -656 -39 0
-657 656 0
-657 39 0
658 -952 -655 0
-658 952 0
-658 655 0
659 -37 -2 0
-659 37 0
-659 2 0
660 -659 -8 0
-660 659 0
-660 8 0
661 -953 -658 0
-661 953 0
-661 658 0
662 -729 -706 0
-662 729 0
-662 706 0
663 -662 -39 0
-663 662 0
-663 39 0
664 -954 -661 0
-664 954 0
-664 661 0
665 -798 -20 0
-665 798 0
-665 20 0
666 -665 -722 0
-666 665 0
-666 722 0
667 -955 -664 0
-667 955 0
-667 664 0
668 -789 -13 0
-668 789 0
-668 13 0
669 -668 -715 0
-669 668 0
-669 715 0
670 -956 -667 0
-670 956 0
-670 667 0
671 -49 -36 0
-671 49 0
-671 36 0
672 -671 -874 0
-672 671 0
-672 874 0
673 -957 -670 0
-673 957 0
-673 670 0
674 -741 -789 0
-674 741 0
-674 789 0
675 -674 -736 0
-675 674 0
-675 736 0
676 -958 -673 0
-676 958 0
-676 673 0
677 -25 -4 0
-677 25 0
-677 4 0
678 -677 -20 0
-678 677 0
-678 20 0
679 -959 -676 0
-679 959 0
-679 676 0
680 -36 -714 0
-680 36 0
-680 714 0
681 -680 -700 0
-681 680 0
-681 700 0
682 -960 -679 0
-682 960 0
-682 679 0
683 -18 -704 0
-683 18 0
-683 704 0
684 -683 -769 0
-684 683 0
-684 769 0
685 -961 -682 0
-685 961 0
-685 682 0
686 -720 -700 0
-686 720 0
-686 700 0
687 -686 -49 0
-687 686 0
-687 49 0
688 -962 -685 0
-688 962 0
-688 685 0
689 -767 -719 0
-689 767 0
-689 719 0
690 -689 -42 0
-690 689 0
-690 42 0
691 -963 -688 0
-691 963 0
-691 688 0
692 -30 -735 0
-692 30 0
-692 735 0
693 -692 -699 0
-693 692 0
-693 699 0
694 -964 -691 0
-694 964 0
-694 691 0
695 -20 -700 0
-695 20 0
-695 700 0
696 -695 -775 0
-696 695 0
-696 775 0
697 -965 -694 0
-697 965 0
-697 694 0
-698 -1 0
698 1 0
-699 -3 0
699 3 0
-700 -4 0
700 4 0
-701 -5 0
701 5 0
-702 -54 0
702 54 0
-703 -52 0
703 52 0
-704 -7 0
704 7 0
-705 -6 0
705 6 0
-706 -8 0
706 8 0
-707 -57 0
707 57 0
-708 -9 0
708 9 0
-709 -11 0
709 11 0
-710 -60 0
710 60 0
-711 -12 0
711 12 0
-712 -63 0
712 63 0
-713 -66 0
713 66 0
-714 -16 0
714 16 0
-715 -17 0
715 17 0
-716 -69 0
716 69 0
-717 -72 0
717 72 0
-718 -75 0
718 75 0
-719 -22 0
719 22 0
-720 -23 0
720 23 0
-721 -78 0
721 78 0
-722 -24 0
722 24 0
-723 -81 0
723 81 0
-724 -25 0
724 25 0
-725 -84 0
725 84 0
-726 -26 0
726 26 0
-727 -14 0
727 14 0
-728 -87 0
728 87 0
-729 -28 0
729 28 0
-730 -27 0
730 27 0
-731 -90 0
731 90 0
-732 -18 0
732 18 0
-733 -30 0
733 30 0
-734 -93 0
734 93 0
-735 -19 0
735 19 0
-736 -32 0
736 32 0
-737 -96 0
737 96 0
-738 -99 0
738 99 0
-739 -13 0
739 13 0
-740 -102 0
740 102 0
-741 -36 0
741 36 0
-742 -35 0
742 35 0
-743 -105 0
743 105 0
-744 -38 0
744 38 0
-745 -37 0
745 37 0
-746 -108 0
746 108 0
-747 -39 0
747 39 0
-748 -111 0
748 111 0
-749 -114 0
749 114 0
-750 -40 0
750 40 0
-751 -117 0
751 117 0
-752 -41 0
752 41 0
-753 -120 0
753 120 0
-754 -123 0
754 123 0
-755 -43 0
755 43 0
-756 -126 0
756 126 0
-757 -29 0
757 29 0
-758 -129 0
758 129 0
-759 -44 0
759 44 0
-760 -132 0
760 132 0
-761 -135 0
761 135 0
-762 -138 0
762 138 0
-763 -141 0
763 141 0
-764 -144 0
764 144 0
-765 -46 0
765 46 0
-766 -147 0
766 147 0
-767 -45 0
767 45 0
-768 -150 0
768 150 0
-769 -33 0
769 33 0
-770 -153 0
770 153 0
-771 -156 0
771 156 0
-772 -159 0
772 159 0
-773 -162 0
773 162 0
-774 -165 0
774 165 0
-775 -47 0
775 47 0
-776 -168 0
776 168 0
-777 -171 0
777 171 0
-778 -20 0
778 20 0
-779 -174 0
779 174 0
-780 -177 0
780 177 0
-781 -180 0
781 180 0
-782 -183 0
782 183 0
-783 -186 0
783 186 0
-784 -189 0
784 189 0
-785 -2 0
785 2 0
-786 -192 0
786 192 0
-787 -15 0
787 15 0
-788 -195 0
788 195 0
-789 -31 0
789 31 0
-790 -198 0
790 198 0
-791 -201 0
791 201 0
-792 -204 0
792 204 0
-793 -48 0
793 48 0
-794 -207 0
794 207 0
-795 -10 0
795 10 0
-796 -210 0
796 210 0
-797 -213 0
797 213 0
-798 -42 0
798 42 0
-799 -216 0
799 216 0
-800 -219 0
800 219 0
-801 -222 0
801 222 0
-802 -225 0
802 225 0
-803 -228 0
803 228 0
-804 -50 0
804 50 0
-805 -231 0
805 231 0
-806 -49 0
806 49 0
-807 -234 0
807 234 0
-808 -237 0
808 237 0
-809 -240 0
809 240 0
-810 -243 0
810 243 0
-811 -246 0
811 246 0
-812 -249 0
812 249 0
-813 -252 0
813 252 0
-814 -255 0
814 255 0
-815 -258 0
815 258 0
-816 -261 0
816 261 0
-817 -264 0
817 264 0
-818 -267 0
818 267 0
-819 -270 0
819 270 0
-820 -273 0
820 273 0
-821 -276 0
821 276 0
-822 -279 0
822 279 0
-823 -282 0
823 282 0
-824 -285 0
824 285 0
-825 -288 0
825 288 0
-826 -291 0
826 291 0
-827 -294 0
827 294 0
-828 -297 0
828 297 0
-829 -300 0
829 300 0
-830 -303 0
830 303 0
-831 -306 0
831 306 0
-832 -309 0
832 309 0
-833 -312 0
833 312 0
-834 -315 0
834 315 0
-835 -317 0
835 317 0
-836 -320 0
836 320 0
-837 -323 0
837 323 0
-838 -326 0
838 326 0
-839 -329 0
839 329 0
-840 -332 0
840 332 0
-841 -335 0
841 335 0
-842 -338 0
842 338 0
-843 -341 0
843 341 0
-844 -344 0
844 344 0
-845 -34 0
845 34 0
-846 -347 0
846 347 0
-847 -350 0
847 350 0
-848 -353 0
848 353 0
-849 -356 0
849 356 0
-850 -359 0
850 359 0
-851 -362 0
851 362 0
-852 -365 0
852 365 0
-853 -368 0
853 368 0
-854 -371 0
854 371 0
-855 -374 0
855 374 0
-856 -377 0
856 377 0
-857 -380 0
857 380 0
-858 -383 0
858 383 0
-859 -386 0
859 386 0
-860 -389 0
860 389 0
-861 -392 0
861 392 0
-862 -395 0
862 395 0
-863 -398 0
863 398 0
-864 -401 0
864 401 0
-865 -404 0
865 404 0
-866 -406 0
866 406 0
-867 -409 0
867 409 0
-868 -412 0
868 412 0
-869 -415 0
869 415 0
-870 -418 0
870 418 0
-871 -421 0
871 421 0
-872 -424 0
872 424 0
-873 -427 0
873 427 0
-874 -21 0
874 21 0
-875 -430 0
875 430 0
-876 -433 0
876 433 0
-877 -436 0
877 436 0
-878 -439 0
878 439 0
-879 -442 0
879 442 0
-880 -445 0
880 445 0
-881 -448 0
881 448 0
-882 -451 0
882 451 0
-883 -454 0
883 454 0
-884 -457 0
884 457 0
-885 -460 0
885 460 0
-886 -463 0
886 463 0
-887 -466 0
887 466 0
-888 -469 0
888 469 0
-889 -472 0
889 472 0
-890 -475 0
890 475 0
-891 -477 0
891 477 0
-892 -480 0
892 480 0
-893 -483 0
893 483 0
-894 -486 0
894 486 0
-895 -489 0
895 489 0
-896 -492 0
896 492 0
-897 -495 0
897 495 0
-898 -498 0
898 498 0
-899 -501 0
899 501 0
-900 -504 0
900 504 0
-901 -507 0
901 507 0
-902 -510 0
902 510 0
-903 -513 0
903 513 0
-904 -516 0
904 516 0
-905 -519 0
905 519 0
-906 -522 0
906 522 0
-907 -525 0
907 525 0
-908 -528 0
908 528 0
-909 -531 0
909 531 0
-910 -534 0
910 534 0
-911 -537 0
911 537 0
-912 -540 0
912 540 0
-913 -543 0
913 543 0
-914 -546 0
914 546 0
-915 -549 0
915 549 0
-916 -552 0
916 552 0
-917 -555 0
917 555 0
-918 -557 0
918 557 0
-919 -560 0
919 560 0
-920 -562 0
920 562 0
-921 -565 0
921 565 0
-922 -568 0
922 568 0
-923 -571 0
923 571 0
-924 -573 0
924 573 0
-925 -576 0
925 576 0
-926 -579 0
926 579 0
-927 -582 0
927 582 0
-928 -585 0
928 585 0
-929 -588 0
929 588 0
-930 -591 0
930 591 0
-931 -594 0
931 594 0
-932 -597 0
932 597 0
-933 -600 0
933 600 0
-934 -603 0
934 603 0
-935 -606 0
935 606 0
-936 -609 0
936 609 0
-937 -612 0
937 612 0
-938 -615 0
938 615 0
-939 -618 0
939 618 0
-940 -621 0
940 621 0
-941 -624 0
941 624 0
-942 -627 0
942 627 0
-943 -630 0
943 630 0
-944 -633 0
944 633 0
-945 -636 0
945 636 0
-946 -639 0
946 639 0
-947 -642 0
947 642 0
-948 -645 0
948 645 0
-949 -648 0
949 648 0
-950 -651 0
950 651 0
-951 -654 0
951 654 0
-952 -657 0
952 657 0
-953 -660 0
953 660 0
-954 -663 0
954 663 0
-955 -666 0
955 666 0
-956 -669 0
956 669 0
-957 -672 0
957 672 0
-958 -675 0
958 675 0
-959 -678 0
959 678 0
-960 -681 0
960 681 0
-961 -684 0
961 684 0
-962 -687 0
962 687 0
-963 -690 0
963 690 0
-964 -693 0
964 693 0
-965 -696 0
965 696 0
697 0
